30
1 0 20
2 0 44
2 1 6
3 0 58
3 1 57
3 2 37
4 0 19
4 1 48
4 2 59
4 3 51
5 0 56
5 1 55
5 2 45
5 3 58
5 4 24
6 0 48
6 1 46
6 2 43
6 3 42
6 4 15
6 5 9
7 0 44
7 1 22
7 2 36
7 3 6
7 4 19
7 5 34
7 6 32
8 0 32
8 1 8
8 2 25
8 3 33
8 4 45
8 5 57
8 6 45
8 7 55
9 0 56
9 1 32
9 2 7
9 3 53
9 4 48
9 5 14
9 6 25
9 7 16
9 8 31
10 0 51
10 1 42
10 2 50
10 3 8
10 4 7
10 5 53
10 6 56
10 7 42
10 8 39
10 9 38
11 0 31
11 1 59
11 2 7
11 3 20
11 4 18
11 5 38
11 6 10
11 7 11
11 8 52
11 9 52
11 10 24
12 0 45
12 1 51
12 2 22
12 3 12
12 4 21
12 5 28
12 6 41
12 7 18
12 8 28
12 9 16
12 10 26
12 11 39
13 0 39
13 1 29
13 2 14
13 3 30
13 4 53
13 5 51
13 6 59
13 7 10
13 8 21
13 9 17
13 10 52
13 11 40
13 12 50
14 0 2
14 1 25
14 2 19
14 3 33
14 4 20
14 5 29
14 6 54
14 7 60
14 8 15
14 9 37
14 10 55
14 11 47
14 12 45
14 13 42
15 0 26
15 1 9
15 2 48
15 3 31
15 4 52
15 5 16
15 6 8
15 7 32
15 8 19
15 9 22
15 10 11
15 11 27
15 12 6
15 13 47
15 14 58
16 0 58
16 1 19
16 2 59
16 3 20
16 4 47
16 5 7
16 6 24
16 7 23
16 8 10
16 9 36
16 10 39
16 11 25
16 12 13
16 13 37
16 14 26
16 15 31
17 0 42
17 1 57
17 2 4
17 3 30
17 4 28
17 5 41
17 6 32
17 7 9
17 8 14
17 9 36
17 10 47
17 11 40
17 12 42
17 13 3
17 14 1
17 15 59
17 16 13
18 0 32
18 1 49
18 2 9
18 3 12
18 4 59
18 5 6
18 6 11
18 7 15
18 8 32
18 9 11
18 10 53
18 11 46
18 12 11
18 13 36
18 14 37
18 15 13
18 16 39
18 17 17
19 0 3
19 1 31
19 2 22
19 3 29
19 4 18
19 5 13
19 6 26
19 7 16
19 8 1
19 9 20
19 10 50
19 11 46
19 12 27
19 13 15
19 14 29
19 15 11
19 16 16
19 17 38
19 18 38
20 0 28
20 1 57
20 2 39
20 3 55
20 4 9
20 5 51
20 6 52
20 7 55
20 8 42
20 9 21
20 10 23
20 11 7
20 12 16
20 13 40
20 14 22
20 15 42
20 16 54
20 17 8
20 18 56
20 19 16
21 0 36
21 1 16
21 2 54
21 3 49
21 4 22
21 5 40
21 6 11
21 7 18
21 8 51
21 9 41
21 10 29
21 11 31
21 12 36
21 13 26
21 14 49
21 15 36
21 16 13
21 17 34
21 18 60
21 19 55
21 20 10
22 0 51
22 1 49
22 2 10
22 3 44
22 4 26
22 5 5
22 6 20
22 7 26
22 8 26
22 9 19
22 10 27
22 11 59
22 12 14
22 13 48
22 14 26
22 15 38
22 16 30
22 17 37
22 18 34
22 19 15
22 20 58
22 21 28
23 0 8
23 1 50
23 2 17
23 3 40
23 4 28
23 5 57
23 6 45
23 7 27
23 8 29
23 9 26
23 10 34
23 11 35
23 12 16
23 13 37
23 14 48
23 15 1
23 16 16
23 17 21
23 18 36
23 19 42
23 20 30
23 21 7
23 22 53
24 0 10
24 1 28
24 2 46
24 3 48
24 4 31
24 5 43
24 6 29
24 7 44
24 8 32
24 9 31
24 10 38
24 11 30
24 12 23
24 13 49
24 14 49
24 15 59
24 16 11
24 17 33
24 18 45
24 19 33
24 20 2
24 21 53
24 22 53
24 23 54
25 0 40
25 1 12
25 2 31
25 3 2
25 4 40
25 5 38
25 6 59
25 7 45
25 8 48
25 9 33
25 10 17
25 11 43
25 12 8
25 13 24
25 14 12
25 15 2
25 16 45
25 17 38
25 18 29
25 19 45
25 20 29
25 21 50
25 22 2
25 23 7
25 24 49
26 0 1
26 1 6
26 2 59
26 3 45
26 4 57
26 5 34
26 6 1
26 7 39
26 8 56
26 9 16
26 10 35
26 11 4
26 12 4
26 13 46
26 14 23
26 15 5
26 16 32
26 17 57
26 18 17
26 19 51
26 20 56
26 21 28
26 22 42
26 23 13
26 24 47
26 25 48
27 0 54
27 1 34
27 2 55
27 3 32
27 4 42
27 5 26
27 6 17
27 7 12
27 8 32
27 9 27
27 10 18
27 11 34
27 12 56
27 13 34
27 14 49
27 15 20
27 16 56
27 17 47
27 18 30
27 19 48
27 20 41
27 21 48
27 22 54
27 23 35
27 24 38
27 25 10
27 26 42
28 0 45
28 1 52
28 2 59
28 3 57
28 4 52
28 5 18
28 6 18
28 7 9
28 8 48
28 9 22
28 10 34
28 11 31
28 12 17
28 13 42
28 14 52
28 15 56
28 16 35
28 17 26
28 18 53
28 19 8
28 20 46
28 21 59
28 22 45
28 23 29
28 24 29
28 25 21
28 26 11
28 27 9
29 0 6
29 1 32
29 2 34
29 3 30
29 4 45
29 5 15
29 6 59
29 7 17
29 8 43
29 9 16
29 10 22
29 11 39
29 12 48
29 13 14
29 14 5
29 15 11
29 16 5
29 17 21
29 18 41
29 19 34
29 20 3
29 21 34
29 22 55
29 23 30
29 24 48
29 25 17
29 26 50
29 27 50
29 28 6
